p tw 136 5761 65 
1 66 
1 67 
1 68 
1 69 
1 70 
1 71 
1 72 
1 73 
2 65 
2 74 
2 75 
2 76 
2 77 
2 78 
2 79 
2 80 
2 81 
3 65 
3 82 
3 83 
3 84 
3 85 
3 86 
3 87 
3 88 
3 89 
4 65 
4 90 
4 91 
4 92 
4 93 
4 94 
4 95 
4 96 
4 97 
5 65 
5 98 
5 99 
5 100 
5 101 
5 102 
5 103 
5 104 
5 105 
6 65 
6 106 
6 107 
6 108 
6 109 
6 110 
6 111 
6 112 
6 113 
7 65 
7 114 
7 115 
7 116 
7 117 
7 118 
7 119 
7 120 
7 121 
8 65 
8 122 
8 123 
8 124 
8 125 
8 126 
8 127 
8 128 
8 129 
9 66 
9 81 
9 83 
9 92 
9 101 
9 110 
9 119 
9 128 
9 130 
10 69 
10 75 
10 89 
10 95 
10 98 
10 112 
10 116 
10 126 
10 130 
11 70 
11 79 
11 84 
11 91 
11 104 
11 106 
11 121 
11 125 
11 130 
12 71 
12 78 
12 88 
12 93 
12 100 
12 113 
12 114 
12 123 
12 130 
13 72 
13 76 
13 87 
13 97 
13 102 
13 109 
13 115 
13 122 
13 130 
14 73 
14 74 
14 85 
14 96 
14 99 
14 111 
14 118 
14 124 
14 130 
15 67 
15 77 
15 82 
15 94 
15 105 
15 108 
15 120 
15 127 
15 130 
16 68 
16 80 
16 86 
16 90 
16 103 
16 107 
16 117 
16 129 
16 130 
17 66 
17 78 
17 87 
17 96 
17 105 
17 107 
17 116 
17 125 
17 131 
18 68 
18 75 
18 85 
18 97 
18 104 
18 110 
18 114 
18 127 
18 131 
19 69 
19 80 
19 84 
19 94 
19 99 
19 113 
19 119 
19 122 
19 131 
20 70 
20 74 
20 89 
20 93 
20 103 
20 108 
20 115 
20 128 
20 131 
21 71 
21 81 
21 82 
21 91 
21 102 
21 112 
21 117 
21 124 
21 131 
22 72 
22 77 
22 83 
22 90 
22 100 
22 111 
22 121 
22 126 
22 131 
23 73 
23 79 
23 86 
23 92 
23 98 
23 109 
23 120 
23 123 
23 131 
24 67 
24 76 
24 88 
24 95 
24 101 
24 106 
24 118 
24 129 
24 131 
25 66 
25 74 
25 82 
25 90 
25 98 
25 106 
25 114 
25 122 
25 132 
26 67 
26 75 
26 83 
26 91 
26 99 
26 107 
26 115 
26 123 
26 132 
27 68 
27 76 
27 84 
27 92 
27 100 
27 108 
27 116 
27 124 
27 132 
28 69 
28 77 
28 85 
28 93 
28 101 
28 109 
28 117 
28 125 
28 132 
29 70 
29 78 
29 86 
29 94 
29 102 
29 110 
29 118 
29 126 
29 132 
30 71 
30 79 
30 87 
30 95 
30 103 
30 111 
30 119 
30 127 
30 132 
31 72 
31 80 
31 88 
31 96 
31 104 
31 112 
31 120 
31 128 
31 132 
32 73 
32 81 
32 89 
32 97 
32 105 
32 113 
32 121 
32 129 
32 132 
33 66 
33 77 
33 86 
33 95 
33 104 
33 113 
33 115 
33 124 
33 133 
34 73 
34 75 
34 87 
34 94 
34 100 
34 106 
34 117 
34 128 
34 133 
35 67 
35 81 
35 84 
35 96 
35 103 
35 109 
35 114 
35 126 
35 133 
36 68 
36 79 
36 83 
36 93 
36 105 
36 112 
36 118 
36 122 
36 133 
37 69 
37 74 
37 88 
37 92 
37 102 
37 107 
37 121 
37 127 
37 133 
38 70 
38 80 
38 82 
38 97 
38 101 
38 111 
38 116 
38 123 
38 133 
39 71 
39 76 
39 89 
39 90 
39 99 
39 110 
39 120 
39 125 
39 133 
40 72 
40 78 
40 85 
40 91 
40 98 
40 108 
40 119 
40 129 
40 133 
41 66 
41 79 
41 88 
41 97 
41 99 
41 108 
41 117 
41 126 
41 134 
42 72 
42 75 
42 82 
42 92 
42 103 
42 113 
42 118 
42 125 
42 134 
43 73 
43 78 
43 84 
43 90 
43 101 
43 112 
43 115 
43 127 
43 134 
44 67 
44 80 
44 87 
44 93 
44 98 
44 110 
44 121 
44 124 
44 134 
45 68 
45 77 
45 89 
45 96 
45 102 
45 106 
45 119 
45 123 
45 134 
46 69 
46 76 
46 86 
46 91 
46 105 
46 111 
46 114 
46 128 
46 134 
47 70 
47 81 
47 85 
47 95 
47 100 
47 107 
47 120 
47 122 
47 134 
48 71 
48 74 
48 83 
48 94 
48 104 
48 109 
48 116 
48 129 
48 134 
49 66 
49 80 
49 89 
49 91 
49 100 
49 109 
49 118 
49 127 
49 135 
50 71 
50 75 
50 86 
50 96 
50 101 
50 108 
50 121 
50 122 
50 135 
51 72 
51 74 
51 84 
51 95 
51 105 
51 110 
51 117 
51 123 
51 135 
52 73 
52 76 
52 82 
52 93 
52 104 
52 107 
52 119 
52 126 
52 135 
53 67 
53 79 
53 85 
53 90 
53 102 
53 113 
53 116 
53 128 
53 135 
54 68 
54 81 
54 88 
54 94 
54 98 
54 111 
54 115 
54 125 
54 135 
55 69 
55 78 
55 83 
55 97 
55 103 
55 106 
55 120 
55 124 
55 135 
56 70 
56 77 
56 87 
56 92 
56 99 
56 112 
56 114 
56 129 
56 135 
57 66 
57 76 
57 85 
57 94 
57 103 
57 112 
57 121 
57 123 
57 136 
58 70 
58 75 
58 88 
58 90 
58 105 
58 109 
58 119 
58 124 
58 136 
59 71 
59 77 
59 84 
59 97 
59 98 
59 107 
59 118 
59 128 
59 136 
60 72 
60 81 
60 86 
60 93 
60 99 
60 106 
60 116 
60 127 
60 136 
61 73 
61 80 
61 83 
61 95 
61 102 
61 108 
61 114 
61 125 
61 136 
62 67 
62 78 
62 89 
62 92 
62 104 
62 111 
62 117 
62 122 
62 136 
63 68 
63 74 
63 87 
63 91 
63 101 
63 113 
63 120 
63 126 
63 136 
64 69 
64 79 
64 82 
64 96 
64 100 
64 110 
64 115 
64 129 
64 136 
